
******************************************************************************
This program contains Ipopt, a library for large-scale nonlinear optimization.
 Ipopt is released as open source code under the Eclipse Public License (EPL).
         For more information visit http://projects.coin-or.org/Ipopt
******************************************************************************

This is Ipopt version 3.12.12, running with linear solver mumps.
NOTE: Other linear solvers might be more efficient (see Ipopt documentation).

Number of nonzeros in equality constraint Jacobian...:     1302
Number of nonzeros in inequality constraint Jacobian.:        0
Number of nonzeros in Lagrangian Hessian.............:        1

Total number of variables............................:      502
                     variables with only lower bounds:        0
                variables with lower and upper bounds:        0
                     variables with only upper bounds:        0
Total number of equality constraints.................:      402
Total number of inequality constraints...............:        0
        inequality constraints with only lower bounds:        0
   inequality constraints with lower and upper bounds:        0
        inequality constraints with only upper bounds:        0

iter    objective    inf_pr   inf_du lg(mu)  ||d||  lg(rg) alpha_du alpha_pr  ls
   0 1.0000000e-002 9.90e+000 6.02e-002   0.0 0.00e+000    -  0.00e+000 0.00e+000   0
   1 1.4761092e-006 2.97e-015 1.09e-003 -11.0 1.09e+001  -4.0 1.00e+000 1.00e+000h  1
   2 4.5186914e-015 2.01e-015 4.05e-008 -11.0 1.21e-003  -4.5 1.00e+000 1.00e+000f  1
   3 1.5370798e-024 2.45e-015 7.47e-013 -11.0 6.72e-008  -5.0 1.00e+000 1.00e+000h  1

Number of Iterations....: 3

                                   (scaled)                 (unscaled)
Objective...............:  1.5370797727567447e-024   1.5370797727567447e-024
Dual infeasibility......:  7.4688858144152225e-013   7.4688858144152225e-013
Constraint violation....:  2.4459601011272980e-015   2.4459601011272980e-015
Complementarity.........:  0.0000000000000000e+000   0.0000000000000000e+000
Overall NLP error.......:  7.4688858144152225e-013   7.4688858144152225e-013


Number of objective function evaluations             = 4
Number of objective gradient evaluations             = 4
Number of equality constraint evaluations            = 4
Number of inequality constraint evaluations          = 0
Number of equality constraint Jacobian evaluations   = 4
Number of inequality constraint Jacobian evaluations = 0
Number of Lagrangian Hessian evaluations             = 3
Total CPU secs in IPOPT (w/o function evaluations)   =      0.054
Total CPU secs in NLP function evaluations           =      0.004

EXIT: Optimal Solution Found.
